c A SAT instance generated from a 3-CNF formula that had 40 clauses and 10 variables
p cnf 10 40
-2 -6 -9 0
6 -3 5 0
-1 4 -9 0
10 -9 2 0
-1 4 2 0
-10 8 -5 0
1 -6 4 0
-2 -10 1 0
-8 -10 -1 0
-6 -4 9 0
-7 -10 9 0
-10 -7 9 0
3 1 -10 0
10 -9 -4 0
2 -3 7 0
-3 10 -5 0
10 -8 -2 0
-6 -5 -9 0
-10 8 -3 0
10 3 4 0
5 -10 2 0
7 -2 9 0
1 5 -6 0
3 -5 -10 0
9 3 7 0
-6 9 -8 0
-7 10 5 0
8 3 5 0
-2 5 -8 0
3 -7 -5 0
-3 2 5 0
-10 -3 7 0
7 -2 9 0
-9 2 -6 0
8 1 -10 0
8 -7 6 0
-9 -5 -4 0
2 8 4 0
-4 -2 -6 0
8 -4 6 0
